Route #1: 10 12 14 16 15 19 18 17 13 
Route #1:  59 41 8 68 65
Route #2:  76 94 74 33
Route #3:  81 9 82 22
Route #4:  64 29 30 11
Route #5:  67 85 17 73
Route #6:  83 37 27
Route #7:  46 32 54
Route #8:  51 24 28
Route #9:  12 92 72 53
Route #10:  47 31 80
Route #11:  18 97 43
Route #12:  95 61 4
Route #13:  69 70 75 14
Route #14:  42 2 87
Route #15:  63 39 79 55
Route #16:  20 52 57 88 66 35
Route #17:  6 10 23
Route #18:  25 21
Route #19:  16 58 77 71 36 96
Route #20:  98 48 90 84 86 34
Route #21:  45 60 44 49
Route #22:  13 89 62
Route #23:  15 40 5 19
Route #24:  78 99 100
Route #25:  91 56 93
Route #26:  26 7 38
Route #27:  3 50
Cost : 34934